WARNING: for repeatability, setting FPU to use double precision
============================[ Problem Statistics ]=============================
|                                                                             |
|  Number of variables:           100                                         |
|  Number of clauses:             449                                         |
|  Parse time:                   0.00 s                                       |
|  Simplification time:          0.00 s                                       |
|                                                                             |
============================[ Search Statistics ]==============================
| Conflicts |          ORIGINAL         |          LEARNT          | Progress |
|           |    Vars  Clauses Literals |    Limit  Clauses Lit/Cl |          |
===============================================================================
|       100 |     100      449     1347 |      164      100      6 |  0.010 % |
|       250 |     100      449     1347 |      181      165      7 |  0.010 % |
|       475 |      91      406     1218 |      199       80      5 |  9.011 % |
===============================================================================
restarts              : 4
conflicts             : 492            (211613 /sec)
decisions             : 596            (0.00 % random) (256344 /sec)
propagations          : 11542          (4964301 /sec)
conflict literals     : 2897           (19.55 % deleted)
Memory used           : 13.00 MB
CPU time              : 0.002325 s

SATISFIABLE
